p cnf 210 1876
1 2 3 4 5 6 7 0
8 9 10 11 12 13 14 0
15 16 17 18 19 20 21 0
22 23 24 25 26 27 28 0
29 30 31 32 33 34 35 0
36 37 38 39 40 41 42 0
43 44 45 46 47 48 49 0
50 51 52 53 54 55 56 0
57 58 59 60 61 62 63 0
64 65 66 67 68 69 70 0
71 72 73 74 75 76 77 0
78 79 80 81 82 83 84 0
85 86 87 88 89 90 91 0
92 93 94 95 96 97 98 0
99 100 101 102 103 104 105 0
106 107 108 109 110 111 112 0
113 114 115 116 117 118 119 0
120 121 122 123 124 125 126 0
127 128 129 130 131 132 133 0
134 135 136 137 138 139 140 0
141 142 143 144 145 146 147 0
148 149 150 151 152 153 154 0
155 156 157 158 159 160 161 0
162 163 164 165 166 167 168 0
169 170 171 172 173 174 175 0
176 177 178 179 180 181 182 0
183 184 185 186 187 188 189 0
190 191 192 193 194 195 196 0
197 198 199 200 201 202 203 0
204 205 206 207 208 209 210 0
-1 -2 0
-1 -3 0
-1 -4 0
-1 -5 0
-1 -6 0
-1 -7 0
-2 -3 0
-2 -4 0
-2 -5 0
-2 -6 0
-2 -7 0
-3 -4 0
-3 -5 0
-3 -6 0
-3 -7 0
-4 -5 0
-4 -6 0
-4 -7 0
-5 -6 0
-5 -7 0
-6 -7 0
-8 -9 0
-8 -10 0
-8 -11 0
-8 -12 0
-8 -13 0
-8 -14 0
-9 -10 0
-9 -11 0
-9 -12 0
-9 -13 0
-9 -14 0
-10 -11 0
-10 -12 0
-10 -13 0
-10 -14 0
-11 -12 0
-11 -13 0
-11 -14 0
-12 -13 0
-12 -14 0
-13 -14 0
-15 -16 0
-15 -17 0
-15 -18 0
-15 -19 0
-15 -20 0
-15 -21 0
-16 -17 0
-16 -18 0
-16 -19 0
-16 -20 0
-16 -21 0
-17 -18 0
-17 -19 0
-17 -20 0
-17 -21 0
-18 -19 0
-18 -20 0
-18 -21 0
-19 -20 0
-19 -21 0
-20 -21 0
-22 -23 0
-22 -24 0
-22 -25 0
-22 -26 0
-22 -27 0
-22 -28 0
-23 -24 0
-23 -25 0
-23 -26 0
-23 -27 0
-23 -28 0
-24 -25 0
-24 -26 0
-24 -27 0
-24 -28 0
-25 -26 0
-25 -27 0
-25 -28 0
-26 -27 0
-26 -28 0
-27 -28 0
-29 -30 0
-29 -31 0
-29 -32 0
-29 -33 0
-29 -34 0
-29 -35 0
-30 -31 0
-30 -32 0
-30 -33 0
-30 -34 0
-30 -35 0
-31 -32 0
-31 -33 0
-31 -34 0
-31 -35 0
-32 -33 0
-32 -34 0
-32 -35 0
-33 -34 0
-33 -35 0
-34 -35 0
-36 -37 0
-36 -38 0
-36 -39 0
-36 -40 0
-36 -41 0
-36 -42 0
-37 -38 0
-37 -39 0
-37 -40 0
-37 -41 0
-37 -42 0
-38 -39 0
-38 -40 0
-38 -41 0
-38 -42 0
-39 -40 0
-39 -41 0
-39 -42 0
-40 -41 0
-40 -42 0
-41 -42 0
-43 -44 0
-43 -45 0
-43 -46 0
-43 -47 0
-43 -48 0
-43 -49 0
-44 -45 0
-44 -46 0
-44 -47 0
-44 -48 0
-44 -49 0
-45 -46 0
-45 -47 0
-45 -48 0
-45 -49 0
-46 -47 0
-46 -48 0
-46 -49 0
-47 -48 0
-47 -49 0
-48 -49 0
-50 -51 0
-50 -52 0
-50 -53 0
-50 -54 0
-50 -55 0
-50 -56 0
-51 -52 0
-51 -53 0
-51 -54 0
-51 -55 0
-51 -56 0
-52 -53 0
-52 -54 0
-52 -55 0
-52 -56 0
-53 -54 0
-53 -55 0
-53 -56 0
-54 -55 0
-54 -56 0
-55 -56 0
-57 -58 0
-57 -59 0
-57 -60 0
-57 -61 0
-57 -62 0
-57 -63 0
-58 -59 0
-58 -60 0
-58 -61 0
-58 -62 0
-58 -63 0
-59 -60 0
-59 -61 0
-59 -62 0
-59 -63 0
-60 -61 0
-60 -62 0
-60 -63 0
-61 -62 0
-61 -63 0
-62 -63 0
-64 -65 0
-64 -66 0
-64 -67 0
-64 -68 0
-64 -69 0
-64 -70 0
-65 -66 0
-65 -67 0
-65 -68 0
-65 -69 0
-65 -70 0
-66 -67 0
-66 -68 0
-66 -69 0
-66 -70 0
-67 -68 0
-67 -69 0
-67 -70 0
-68 -69 0
-68 -70 0
-69 -70 0
-71 -72 0
-71 -73 0
-71 -74 0
-71 -75 0
-71 -76 0
-71 -77 0
-72 -73 0
-72 -74 0
-72 -75 0
-72 -76 0
-72 -77 0
-73 -74 0
-73 -75 0
-73 -76 0
-73 -77 0
-74 -75 0
-74 -76 0
-74 -77 0
-75 -76 0
-75 -77 0
-76 -77 0
-78 -79 0
-78 -80 0
-78 -81 0
-78 -82 0
-78 -83 0
-78 -84 0
-79 -80 0
-79 -81 0
-79 -82 0
-79 -83 0
-79 -84 0
-80 -81 0
-80 -82 0
-80 -83 0
-80 -84 0
-81 -82 0
-81 -83 0
-81 -84 0
-82 -83 0
-82 -84 0
-83 -84 0
-85 -86 0
-85 -87 0
-85 -88 0
-85 -89 0
-85 -90 0
-85 -91 0
-86 -87 0
-86 -88 0
-86 -89 0
-86 -90 0
-86 -91 0
-87 -88 0
-87 -89 0
-87 -90 0
-87 -91 0
-88 -89 0
-88 -90 0
-88 -91 0
-89 -90 0
-89 -91 0
-90 -91 0
-92 -93 0
-92 -94 0
-92 -95 0
-92 -96 0
-92 -97 0
-92 -98 0
-93 -94 0
-93 -95 0
-93 -96 0
-93 -97 0
-93 -98 0
-94 -95 0
-94 -96 0
-94 -97 0
-94 -98 0
-95 -96 0
-95 -97 0
-95 -98 0
-96 -97 0
-96 -98 0
-97 -98 0
-99 -100 0
-99 -101 0
-99 -102 0
-99 -103 0
-99 -104 0
-99 -105 0
-100 -101 0
-100 -102 0
-100 -103 0
-100 -104 0
-100 -105 0
-101 -102 0
-101 -103 0
-101 -104 0
-101 -105 0
-102 -103 0
-102 -104 0
-102 -105 0
-103 -104 0
-103 -105 0
-104 -105 0
-106 -107 0
-106 -108 0
-106 -109 0
-106 -110 0
-106 -111 0
-106 -112 0
-107 -108 0
-107 -109 0
-107 -110 0
-107 -111 0
-107 -112 0
-108 -109 0
-108 -110 0
-108 -111 0
-108 -112 0
-109 -110 0
-109 -111 0
-109 -112 0
-110 -111 0
-110 -112 0
-111 -112 0
-113 -114 0
-113 -115 0
-113 -116 0
-113 -117 0
-113 -118 0
-113 -119 0
-114 -115 0
-114 -116 0
-114 -117 0
-114 -118 0
-114 -119 0
-115 -116 0
-115 -117 0
-115 -118 0
-115 -119 0
-116 -117 0
-116 -118 0
-116 -119 0
-117 -118 0
-117 -119 0
-118 -119 0
-120 -121 0
-120 -122 0
-120 -123 0
-120 -124 0
-120 -125 0
-120 -126 0
-121 -122 0
-121 -123 0
-121 -124 0
-121 -125 0
-121 -126 0
-122 -123 0
-122 -124 0
-122 -125 0
-122 -126 0
-123 -124 0
-123 -125 0
-123 -126 0
-124 -125 0
-124 -126 0
-125 -126 0
-127 -128 0
-127 -129 0
-127 -130 0
-127 -131 0
-127 -132 0
-127 -133 0
-128 -129 0
-128 -130 0
-128 -131 0
-128 -132 0
-128 -133 0
-129 -130 0
-129 -131 0
-129 -132 0
-129 -133 0
-130 -131 0
-130 -132 0
-130 -133 0
-131 -132 0
-131 -133 0
-132 -133 0
-134 -135 0
-134 -136 0
-134 -137 0
-134 -138 0
-134 -139 0
-134 -140 0
-135 -136 0
-135 -137 0
-135 -138 0
-135 -139 0
-135 -140 0
-136 -137 0
-136 -138 0
-136 -139 0
-136 -140 0
-137 -138 0
-137 -139 0
-137 -140 0
-138 -139 0
-138 -140 0
-139 -140 0
-141 -142 0
-141 -143 0
-141 -144 0
-141 -145 0
-141 -146 0
-141 -147 0
-142 -143 0
-142 -144 0
-142 -145 0
-142 -146 0
-142 -147 0
-143 -144 0
-143 -145 0
-143 -146 0
-143 -147 0
-144 -145 0
-144 -146 0
-144 -147 0
-145 -146 0
-145 -147 0
-146 -147 0
-148 -149 0
-148 -150 0
-148 -151 0
-148 -152 0
-148 -153 0
-148 -154 0
-149 -150 0
-149 -151 0
-149 -152 0
-149 -153 0
-149 -154 0
-150 -151 0
-150 -152 0
-150 -153 0
-150 -154 0
-151 -152 0
-151 -153 0
-151 -154 0
-152 -153 0
-152 -154 0
-153 -154 0
-155 -156 0
-155 -157 0
-155 -158 0
-155 -159 0
-155 -160 0
-155 -161 0
-156 -157 0
-156 -158 0
-156 -159 0
-156 -160 0
-156 -161 0
-157 -158 0
-157 -159 0
-157 -160 0
-157 -161 0
-158 -159 0
-158 -160 0
-158 -161 0
-159 -160 0
-159 -161 0
-160 -161 0
-162 -163 0
-162 -164 0
-162 -165 0
-162 -166 0
-162 -167 0
-162 -168 0
-163 -164 0
-163 -165 0
-163 -166 0
-163 -167 0
-163 -168 0
-164 -165 0
-164 -166 0
-164 -167 0
-164 -168 0
-165 -166 0
-165 -167 0
-165 -168 0
-166 -167 0
-166 -168 0
-167 -168 0
-169 -170 0
-169 -171 0
-169 -172 0
-169 -173 0
-169 -174 0
-169 -175 0
-170 -171 0
-170 -172 0
-170 -173 0
-170 -174 0
-170 -175 0
-171 -172 0
-171 -173 0
-171 -174 0
-171 -175 0
-172 -173 0
-172 -174 0
-172 -175 0
-173 -174 0
-173 -175 0
-174 -175 0
-176 -177 0
-176 -178 0
-176 -179 0
-176 -180 0
-176 -181 0
-176 -182 0
-177 -178 0
-177 -179 0
-177 -180 0
-177 -181 0
-177 -182 0
-178 -179 0
-178 -180 0
-178 -181 0
-178 -182 0
-179 -180 0
-179 -181 0
-179 -182 0
-180 -181 0
-180 -182 0
-181 -182 0
-183 -184 0
-183 -185 0
-183 -186 0
-183 -187 0
-183 -188 0
-183 -189 0
-184 -185 0
-184 -186 0
-184 -187 0
-184 -188 0
-184 -189 0
-185 -186 0
-185 -187 0
-185 -188 0
-185 -189 0
-186 -187 0
-186 -188 0
-186 -189 0
-187 -188 0
-187 -189 0
-188 -189 0
-190 -191 0
-190 -192 0
-190 -193 0
-190 -194 0
-190 -195 0
-190 -196 0
-191 -192 0
-191 -193 0
-191 -194 0
-191 -195 0
-191 -196 0
-192 -193 0
-192 -194 0
-192 -195 0
-192 -196 0
-193 -194 0
-193 -195 0
-193 -196 0
-194 -195 0
-194 -196 0
-195 -196 0
-197 -198 0
-197 -199 0
-197 -200 0
-197 -201 0
-197 -202 0
-197 -203 0
-198 -199 0
-198 -200 0
-198 -201 0
-198 -202 0
-198 -203 0
-199 -200 0
-199 -201 0
-199 -202 0
-199 -203 0
-200 -201 0
-200 -202 0
-200 -203 0
-201 -202 0
-201 -203 0
-202 -203 0
-204 -205 0
-204 -206 0
-204 -207 0
-204 -208 0
-204 -209 0
-204 -210 0
-205 -206 0
-205 -207 0
-205 -208 0
-205 -209 0
-205 -210 0
-206 -207 0
-206 -208 0
-206 -209 0
-206 -210 0
-207 -208 0
-207 -209 0
-207 -210 0
-208 -209 0
-208 -210 0
-209 -210 0
-7 -20 0
-1 -21 0
-7 -17 0
-1 -15 0
-5 -25 0
-6 -27 0
-2 -28 0
-6 -22 0
-6 -31 0
-6 -29 0
-1 -35 0
-7 -29 0
-2 -36 0
-7 -39 0
-6 -38 0
-2 -40 0
-3 -45 0
-2 -48 0
-6 -43 0
-6 -49 0
-4 -59 0
-2 -62 0
-3 -62 0
-4 -58 0
-2 -65 0
-7 -67 0
-7 -70 0
-6 -69 0
-2 -74 0
-4 -75 0
-6 -72 0
-6 -73 0
-6 -81 0
-7 -82 0
-4 -79 0
-1 -80 0
-4 -85 0
-5 -88 0
-7 -86 0
-3 -89 0
-1 -104 0
-4 -104 0
-3 -104 0
-3 -103 0
-6 -111 0
-5 -108 0
-2 -106 0
-5 -106 0
-1 -118 0
-6 -118 0
-4 -115 0
-7 -116 0
-1 -120 0
-6 -120 0
-7 -120 0
-2 -122 0
-6 -144 0
-3 -145 0
-2 -145 0
-6 -141 0
-4 -148 0
-5 -150 0
-4 -153 0
-5 -153 0
-4 -156 0
-4 -160 0
-2 -159 0
-5 -161 0
-4 -175 0
-4 -170 0
-6 -170 0
-6 -169 0
-2 -189 0
-4 -188 0
-7 -189 0
-5 -185 0
-3 -202 0
-1 -201 0
-3 -199 0
-4 -198 0
-11 -21 0
-8 -16 0
-14 -21 0
-8 -18 0
-12 -32 0
-9 -34 0
-12 -35 0
-11 -32 0
-9 -41 0
-12 -37 0
-10 -36 0
-14 -39 0
-10 -44 0
-10 -48 0
-14 -47 0
-13 -49 0
-8 -58 0
-11 -63 0
-9 -63 0
-10 -62 0
-11 -67 0
-8 -68 0
-12 -66 0
-13 -70 0
-10 -76 0
-9 -72 0
-11 -71 0
-10 -74 0
-14 -104 0
-14 -102 0
-11 -105 0
-10 -105 0
-13 -115 0
-10 -119 0
-13 -113 0
-10 -114 0
-11 -120 0
-14 -120 0
-11 -126 0
-8 -123 0
-10 -136 0
-12 -137 0
-13 -138 0
-12 -139 0
-11 -141 0
-10 -147 0
-8 -146 0
-12 -144 0
-9 -158 0
-10 -159 0
-10 -161 0
-11 -157 0
-9 -162 0
-10 -164 0
-8 -166 0
-10 -168 0
-10 -175 0
-13 -174 0
-10 -172 0
-14 -174 0
-8 -181 0
-13 -180 0
-14 -178 0
-11 -179 0
-9 -189 0
-12 -183 0
-11 -185 0
-8 -189 0
-10 -194 0
-10 -190 0
-11 -191 0
-10 -193 0
-8 -210 0
-14 -206 0
-9 -207 0
-14 -210 0
-20 -22 0
-18 -25 0
-16 -24 0
-20 -25 0
-19 -33 0
-18 -33 0
-20 -35 0
-17 -29 0
-20 -40 0
-16 -42 0
-19 -38 0
-17 -41 0
-18 -45 0
-18 -47 0
-21 -44 0
-15 -47 0
-20 -50 0
-21 -50 0
-19 -56 0
-21 -55 0
-19 -58 0
-15 -60 0
-20 -59 0
-21 -60 0
-18 -72 0
-17 -75 0
-19 -75 0
-15 -73 0
-20 -81 0
-15 -78 0
-21 -78 0
-20 -84 0
-20 -98 0
-21 -98 0
-16 -98 0
-20 -92 0
-17 -115 0
-20 -118 0
-18 -116 0
-17 -118 0
-16 -125 0
-18 -125 0
-19 -125 0
-16 -122 0
-18 -139 0
-17 -140 0
-16 -135 0
-16 -137 0
-19 -141 0
-15 -144 0
-18 -143 0
-17 -142 0
-17 -152 0
-16 -152 0
-16 -150 0
-19 -152 0
-21 -156 0
-16 -160 0
-18 -160 0
-21 -161 0
-19 -170 0
-20 -175 0
-16 -174 0
-15 -170 0
-16 -189 0
-19 -187 0
-20 -186 0
-17 -186 0
-21 -192 0
-16 -193 0
-18 -195 0
-20 -190 0
-18 -203 0
-17 -203 0
-18 -201 0
-16 -197 0
-26 -32 0
-27 -33 0
-26 -33 0
-28 -34 0
-26 -38 0
-24 -40 0
-23 -41 0
-24 -39 0
-24 -48 0
-24 -43 0
-26 -46 0
-28 -46 0
-27 -63 0
-27 -61 0
-24 -57 0
-23 -60 0
-24 -65 0
-27 -69 0
-22 -65 0
-23 -66 0
-22 -77 0
-28 -72 0
-27 -71 0
-27 -75 0
-25 -81 0
-27 -80 0
-25 -78 0
-28 -82 0
-28 -87 0
-28 -88 0
-27 -87 0
-22 -87 0
-27 -97 0
-26 -94 0
-24 -92 0
-23 -92 0
-27 -109 0
-26 -108 0
-26 -109 0
-26 -112 0
-26 -115 0
-24 -117 0
-28 -117 0
-27 -116 0
-22 -123 0
-23 -121 0
-27 -120 0
-27 -124 0
-24 -132 0
-23 -128 0
-28 -132 0
-28 -128 0
-26 -140 0
-23 -139 0
-26 -135 0
-27 -137 0
-23 -151 0
-26 -154 0
-22 -152 0
-26 -153 0
-26 -165 0
-22 -163 0
-25 -165 0
-25 -166 0
-24 -203 0
-25 -197 0
-28 -203 0
-28 -202 0
-29 -41 0
-30 -38 0
-33 -39 0
-34 -38 0
-31 -44 0
-31 -46 0
-35 -49 0
-30 -48 0
-33 -55 0
-29 -52 0
-30 -50 0
-29 -56 0
-35 -62 0
-33 -59 0
-30 -59 0
-29 -59 0
-29 -74 0
-31 -72 0
-34 -77 0
-32 -75 0
-35 -86 0
-35 -91 0
-31 -86 0
-32 -87 0
-35 -97 0
-29 -96 0
-31 -92 0
-33 -97 0
-29 -101 0
-34 -104 0
-33 -101 0
-32 -99 0
-34 -112 0
-30 -107 0
-35 -111 0
-31 -109 0
-34 -117 0
-32 -119 0
-30 -113 0
-33 -119 0
-34 -137 0
-35 -136 0
-30 -139 0
-35 -138 0
-34 -152 0
-34 -150 0
-32 -150 0
-34 -151 0
-34 -157 0
-31 -156 0
-29 -158 0
-35 -160 0
-34 -163 0
-30 -165 0
-30 -166 0
-32 -168 0
-32 -171 0
-30 -170 0
-35 -175 0
-35 -171 0
-32 -181 0
-32 -180 0
-33 -178 0
-34 -179 0
-31 -193 0
-34 -190 0
-32 -193 0
-33 -190 0
-29 -199 0
-32 -203 0
-31 -201 0
-33 -197 0
-32 -210 0
-33 -208 0
-32 -205 0
-30 -204 0
-36 -54 0
-41 -51 0
-40 -52 0
-42 -55 0
-41 -69 0
-41 -66 0
-38 -68 0
-36 -66 0
-40 -74 0
-39 -71 0
-37 -71 0
-41 -76 0
-41 -80 0
-42 -83 0
-37 -81 0
-39 -83 0
-38 -88 0
-37 -90 0
-38 -87 0
-40 -89 0
-42 -93 0
-39 -97 0
-40 -92 0
-41 -98 0
-37 -103 0
-39 -105 0
-40 -102 0
-39 -102 0
-39 -110 0
-37 -107 0
-36 -110 0
-42 -108 0
-40 -121 0
-40 -126 0
-38 -122 0
-39 -121 0
-36 -130 0
-40 -131 0
-42 -128 0
-42 -130 0
-37 -134 0
-38 -139 0
-36 -136 0
-37 -140 0
-42 -152 0
-40 -154 0
-36 -151 0
-41 -149 0
-40 -155 0
-38 -156 0
-40 -161 0
-36 -160 0
-41 -162 0
-37 -168 0
-38 -167 0
-38 -164 0
-40 -171 0
-41 -171 0
-38 -175 0
-37 -171 0
-39 -180 0
-42 -180 0
-41 -179 0
-40 -177 0
-41 -183 0
-40 -183 0
-41 -185 0
-39 -184 0
-41 -191 0
-42 -193 0
-38 -195 0
-41 -196 0
-38 -201 0
-39 -198 0
-41 -203 0
-37 -198 0
-40 -210 0
-42 -209 0
-42 -205 0
-42 -210 0
-48 -56 0
-48 -55 0
-44 -53 0
-48 -51 0
-43 -59 0
-47 -57 0
-46 -57 0
-45 -62 0
-46 -67 0
-45 -69 0
-46 -64 0
-47 -69 0
-46 -85 0
-44 -88 0
-48 -88 0
-49 -89 0
-47 -111 0
-43 -109 0
-46 -112 0
-48 -107 0
-43 -117 0
-43 -119 0
-43 -113 0
-45 -113 0
-46 -121 0
-48 -120 0
-44 -125 0
-48 -121 0
-49 -132 0
-43 -127 0
-44 -133 0
-45 -129 0
-47 -145 0
-46 -146 0
-44 -143 0
-48 -141 0
-45 -154 0
-47 -154 0
-43 -149 0
-44 -151 0
-49 -159 0
-43 -158 0
-46 -159 0
-47 -161 0
-49 -169 0
-49 -174 0
-44 -169 0
-44 -170 0
-46 -176 0
-44 -177 0
-44 -182 0
-43 -177 0
-44 -199 0
-43 -201 0
-48 -202 0
-44 -200 0
-49 -206 0
-47 -210 0
-44 -208 0
-44 -204 0
-51 -58 0
-52 -60 0
-53 -58 0
-55 -61 0
-55 -67 0
-51 -64 0
-50 -69 0
-55 -64 0
-53 -77 0
-55 -72 0
-53 -71 0
-51 -77 0
-52 -82 0
-55 -80 0
-52 -79 0
-56 -82 0
-51 -90 0
-53 -86 0
-52 -88 0
-50 -91 0
-51 -111 0
-54 -107 0
-55 -110 0
-50 -110 0
-54 -130 0
-52 -129 0
-52 -132 0
-51 -132 0
-52 -138 0
-55 -134 0
-55 -139 0
-52 -140 0
-52 -147 0
-50 -144 0
-55 -143 0
-50 -147 0
-56 -158 0
-55 -161 0
-54 -156 0
-50 -155 0
-54 -163 0
-55 -164 0
-55 -168 0
-51 -163 0
-56 -182 0
-55 -178 0
-55 -176 0
-53 -176 0
-50 -189 0
-53 -187 0
-54 -189 0
-53 -185 0
-56 -199 0
-55 -200 0
-52 -198 0
-54 -200 0
-50 -204 0
-53 -205 0
-52 -207 0
-54 -210 0
-57 -70 0
-59 -69 0
-58 -70 0
-61 -65 0
-63 -71 0
-60 -75 0
-60 -71 0
-58 -76 0
-58 -81 0
-58 -82 0
-59 -82 0
-57 -81 0
-58 -91 0
-57 -85 0
-59 -87 0
-61 -88 0
-63 -95 0
-63 -98 0
-60 -93 0
-61 -98 0
-59 -125 0
-57 -124 0
-61 -123 0
-59 -126 0
-57 -127 0
-60 -132 0
-59 -132 0
-58 -127 0
-63 -141 0
-61 -142 0
-57 -145 0
-63 -145 0
-62 -158 0
-63 -161 0
-62 -157 0
-58 -155 0
-57 -164 0
-59 -164 0
-60 -165 0
-63 -167 0
-58 -177 0
-62 -179 0
-61 -178 0
-57 -182 0
-63 -187 0
-57 -183 0
-62 -187 0
-61 -188 0
-58 -196 0
-59 -196 0
-58 -191 0
-60 -192 0
-67 -74 0
-68 -76 0
-69 -77 0
-68 -73 0
-67 -78 0
-70 -80 0
-67 -83 0
-66 -78 0
-65 -93 0
-70 -92 0
-65 -98 0
-70 -97 0
-67 -103 0
-64 -103 0
-64 -101 0
-69 -99 0
-64 -111 0
-68 -112 0
-66 -110 0
-64 -108 0
-69 -123 0
-70 -121 0
-64 -124 0
-68 -122 0
-66 -135 0
-67 -140 0
-67 -139 0
-65 -137 0
-70 -141 0
-68 -146 0
-69 -143 0
-69 -145 0
-68 -154 0
-68 -151 0
-64 -150 0
-68 -149 0
-67 -158 0
-68 -157 0
-68 -161 0
-65 -155 0
-66 -164 0
-64 -168 0
-68 -166 0
-66 -168 0
-65 -183 0
-69 -183 0
-70 -189 0
-66 -183 0
-70 -196 0
-65 -190 0
-68 -195 0
-64 -195 0
-67 -203 0
-65 -198 0
-68 -197 0
-66 -203 0
-77 -81 0
-72 -81 0
-77 -83 0
-76 -83 0
-77 -89 0
-73 -90 0
-73 -89 0
-71 -89 0
-75 -96 0
-73 -92 0
-73 -96 0
-74 -96 0
-71 -101 0
-73 -99 0
-71 -99 0
-77 -104 0
-71 -107 0
-77 -107 0
-74 -108 0
-75 -111 0
-77 -118 0
-71 -119 0
-76 -119 0
-74 -116 0
-76 -128 0
-76 -130 0
-74 -133 0
-75 -129 0
-77 -137 0
-72 -135 0
-71 -134 0
-76 -137 0
-76 -153 0
-74 -148 0
-76 -150 0
-76 -151 0
-76 -161 0
-74 -159 0
-77 -156 0
-73 -159 0
-72 -176 0
-72 -180 0
-76 -180 0
-72 -182 0
-71 -183 0
-71 -189 0
-72 -188 0
-75 -187 0
-77 -196 0
-73 -194 0
-72 -194 0
-71 -196 0
-77 -203 0
-76 -203 0
-76 -198 0
-73 -198 0
-84 -105 0
-78 -100 0
-80 -101 0
-83 -101 0
-83 -107 0
-80 -106 0
-80 -112 0
-81 -106 0
-79 -123 0
-78 -126 0
-84 -126 0
-79 -121 0
-82 -139 0
-83 -138 0
-84 -136 0
-80 -136 0
-81 -147 0
-80 -147 0
-83 -144 0
-80 -141 0
-80 -150 0
-79 -150 0
-79 -154 0
-79 -149 0
-80 -156 0
-83 -159 0
-81 -156 0
-82 -158 0
-82 -162 0
-78 -167 0
-82 -168 0
-83 -166 0
-79 -172 0
-83 -173 0
-83 -175 0
-78 -172 0
-80 -178 0
-84 -182 0
-81 -178 0
-78 -182 0
-83 -188 0
-82 -188 0
-81 -186 0
-84 -185 0
-81 -192 0
-79 -196 0
-84 -190 0
-82 -193 0
-78 -198 0
-79 -198 0
-83 -201 0
-83 -200 0
-84 -207 0
-80 -208 0
-83 -207 0
-81 -204 0
-90 -92 0
-87 -96 0
-85 -98 0
-86 -95 0
-90 -109 0
-85 -112 0
-88 -107 0
-91 -106 0
-91 -115 0
-91 -117 0
-87 -118 0
-85 -115 0
-90 -122 0
-85 -120 0
-87 -124 0
-85 -121 0
-88 -139 0
-88 -136 0
-89 -134 0
-88 -135 0
-91 -142 0
-86 -142 0
-90 -141 0
-90 -144 0
-86 -153 0
-88 -149 0
-87 -152 0
-86 -150 0
-89 -168 0
-89 -163 0
-89 -167 0
-88 -165 0
-89 -176 0
-87 -178 0
-88 -182 0
-85 -180 0
-91 -189 0
-90 -184 0
-90 -185 0
-90 -189 0
-90 -192 0
-85 -193 0
-87 -196 0
-89 -193 0
-86 -200 0
-86 -201 0
-90 -200 0
-87 -197 0
-87 -205 0
-89 -209 0
-86 -207 0
-88 -210 0
-97 -104 0
-95 -104 0
-97 -101 0
-95 -100 0
-94 -111 0
-97 -111 0
-96 -109 0
-94 -108 0
-94 -121 0
-97 -121 0
-92 -122 0
-97 -123 0
-98 -136 0
-93 -139 0
-92 -140 0
-94 -140 0
-98 -146 0
-97 -147 0
-96 -144 0
-95 -144 0
-94 -151 0
-98 -150 0
-93 -152 0
-92 -152 0
-96 -156 0
-98 -159 0
-96 -159 0
-92 -157 0
-92 -167 0
-95 -167 0
-98 -164 0
-97 -165 0
-92 -169 0
-96 -172 0
-95 -174 0
-98 -174 0
-98 -179 0
-95 -180 0
-96 -176 0
-92 -179 0
-93 -189 0
-97 -185 0
-92 -184 0
-93 -187 0
-93 -195 0
-97 -194 0
-97 -195 0
-95 -194 0
-98 -205 0
-96 -210 0
-94 -206 0
-97 -206 0
-101 -114 0
-103 -116 0
-99 -113 0
-105 -115 0
-105 -126 0
-105 -120 0
-105 -122 0
-105 -123 0
-104 -127 0
-103 -127 0
-102 -133 0
-103 -130 0
-105 -138 0
-100 -135 0
-101 -136 0
-104 -137 0
-105 -146 0
-99 -145 0
-104 -147 0
-102 -144 0
-103 -160 0
-101 -155 0
-105 -161 0
-101 -157 0
-101 -166 0
-99 -162 0
-101 -163 0
-101 -167 0
-100 -169 0
-105 -175 0
-101 -174 0
-103 -170 0
-102 -180 0
-101 -182 0
-102 -176 0
-99 -177 0
-101 -194 0
-100 -195 0
-99 -193 0
-101 -190 0
-106 -119 0
-110 -118 0
-107 -117 0
-108 -115 0
-112 -138 0
-111 -138 0
-112 -139 0
-106 -138 0
-110 -154 0
-107 -152 0
-107 -148 0
-109 -151 0
-112 -163 0
-107 -167 0
-109 -165 0
-109 -164 0
-107 -173 0
-110 -171 0
-111 -172 0
-106 -172 0
-106 -179 0
-112 -179 0
-107 -178 0
-112 -176 0
-106 -187 0
-110 -183 0
-111 -185 0
-111 -186 0
-107 -208 0
-112 -207 0
-112 -209 0
-106 -210 0
-113 -120 0
-116 -121 0
-114 -122 0
-113 -123 0
-119 -132 0
-117 -130 0
-117 -128 0
-115 -127 0
-119 -137 0
-113 -136 0
-115 -138 0
-113 -134 0
-116 -143 0
-117 -142 0
-115 -144 0
-114 -146 0
-116 -150 0
-113 -154 0
-117 -148 0
-118 -154 0
-119 -173 0
-116 -174 0
-117 -169 0
-113 -173 0
-118 -177 0
-116 -178 0
-116 -182 0
-118 -179 0
-117 -187 0
-113 -184 0
-118 -188 0
-113 -187 0
-126 -140 0
-126 -139 0
-126 -135 0
-123 -138 0
-126 -145 0
-121 -145 0
-121 -147 0
-123 -145 0
-122 -154 0
-120 -149 0
-121 -152 0
-123 -151 0
-124 -167 0
-124 -165 0
-126 -163 0
-120 -162 0
-125 -173 0
-123 -175 0
-124 -174 0
-126 -172 0
-124 -176 0
-121 -182 0
-120 -176 0
-124 -180 0
-125 -183 0
-122 -188 0
-123 -183 0
-125 -187 0
-125 -193 0
-124 -190 0
-121 -195 0
-120 -190 0
-122 -203 0
-121 -202 0
-124 -198 0
-124 -202 0
-120 -204 0
-125 -206 0
-120 -205 0
-123 -207 0
-128 -148 0
-131 -148 0
-130 -149 0
-133 -149 0
-129 -168 0
-130 -168 0
-131 -164 0
-129 -163 0
-132 -179 0
-133 -179 0
-127 -182 0
-131 -178 0
-127 -190 0
-127 -196 0
-132 -193 0
-128 -192 0
-131 -203 0
-127 -199 0
-130 -201 0
-132 -200 0
-138 -145 0
-134 -143 0
-137 -141 0
-135 -146 0
-134 -160 0
-134 -159 0
-136 -155 0
-139 -158 0
-135 -169 0
-134 -169 0
-135 -171 0
-139 -173 0
-137 -189 0
-136 -186 0
-134 -187 0
-140 -184 0
-137 -202 0
-140 -197 0
-137 -201 0
-135 -197 0
-137 -208 0
-139 -206 0
-134 -209 0
-137 -207 0
-145 -152 0
-145 -149 0
-145 -153 0
-144 -154 0
-145 -160 0
-142 -156 0
-143 -161 0
-146 -157 0
-147 -162 0
-147 -166 0
-147 -168 0
-141 -163 0
-142 -177 0
-144 -177 0
-143 -176 0
-141 -181 0
-143 -185 0
-142 -187 0
-146 -189 0
-144 -183 0
-147 -207 0
-141 -205 0
-147 -205 0
-142 -204 0
-152 -161 0
-150 -156 0
-151 -159 0
-150 -160 0
-148 -163 0
-148 -167 0
-149 -165 0
-150 -168 0
-151 -175 0
-152 -171 0
-150 -171 0
-148 -173 0
-151 -177 0
-149 -182 0
-148 -179 0
-154 -182 0
-148 -183 0
-153 -187 0
-150 -186 0
-150 -184 0
-151 -193 0
-153 -193 0
-149 -196 0
-152 -194 0
-153 -198 0
-150 -199 0
-148 -202 0
-148 -203 0
-161 -166 0
-156 -165 0
-158 -162 0
-155 -165 0
-155 -172 0
-156 -175 0
-157 -174 0
-157 -175 0
-155 -176 0
-156 -176 0
-160 -177 0
-158 -181 0
-160 -184 0
-157 -183 0
-155 -184 0
-156 -186 0
-158 -194 0
-161 -194 0
-158 -195 0
-161 -190 0
-159 -200 0
-161 -202 0
-160 -200 0
-156 -198 0
-156 -210 0
-157 -204 0
-158 -206 0
-160 -206 0
-163 -171 0
-167 -170 0
-163 -173 0
-165 -170 0
-167 -197 0
-163 -203 0
-165 -197 0
-163 -197 0
-163 -207 0
-168 -210 0
-165 -205 0
-164 -206 0
-169 -184 0
-170 -187 0
-169 -186 0
-173 -187 0
-172 -196 0
-171 -196 0
-175 -194 0
-173 -196 0
-173 -204 0
-173 -207 0
-170 -209 0
-174 -206 0
-181 -183 0
-176 -188 0
-181 -186 0
-177 -184 0
-182 -196 0
-177 -196 0
-176 -193 0
-181 -190 0
-180 -205 0
-182 -207 0
-180 -206 0
-179 -207 0
-187 -190 0
-184 -195 0
-183 -193 0
-183 -195 0
-185 -210 0
-183 -210 0
-183 -207 0
-185 -208 0
-193 -201 0
-194 -201 0
-190 -202 0
-196 -198 0
